$lattice
 3
  5.1123820280 0.0000000000 0.0000000000
  2.5561910140 4.4274527101 0.0000000000
  0.0000000000 0.0000000000 34.1742424462
$end
$unitcell
 ABSOLUTE
 0 1
Cu      1.278095506994685      0.737908785013432     15.000000000000000
Cu      3.834286520984055      0.737908785013432     15.000000000000000
Cu      2.556191013989370      2.951635140053729     15.000000000000000
Cu      5.112382027978740      2.951635140053729     15.000000000000000
Cu      0.000000000000000      1.475817570026865     17.087121223120498
Cu      2.556191013989370      1.475817570026865     17.087121223120498
Cu      1.278095506994685      3.689543925067162     17.087121223120498
Cu      3.834286520984055      3.689543925067162     17.087121223120498
Cu      0.000000000000000      0.000000000000000     19.174242446240996
Cu      2.556191013989370      0.000000000000000     19.174242446240996
Cu      1.278095506994685      2.213726355040297     19.174242446240996
Cu      3.834286520984055      2.213726355040297     19.174242446240996
H       1.278095506994685      0.000000000000000     20.22189
$end
$rem
jobtype sp
unrestricted true 
method pbe
pseudo GTH-PBE
basis DZVP-MOLOPT-PBE-GTH
kecut 1500
symmetry false
scf_guess read
DFT_D 6
!gpw_method shellpair
collinear_gscf true
scf_convergence 8
scf_algorithm diis
!tscf true
!theta 0.001
max_scf_cycles 200
mem_total 300000
scf_print 2
mp_mesh [5,5,1]
occ_smearing Fermi
smearing_sigma 0.001
$end
$rem_autosad
incfock 1000
scf_algorithm gdm_ls
scf_convergence 7
$end